p cnf 390 824
1 3 4 6 7 9 10 13 14 15 16 0
17 18 19 22 25 27 29 30 0
33 34 35 37 38 40 42 46 47 0
51 52 54 56 57 58 0
65 67 68 69 70 71 73 74 0
82 84 85 86 88 92 93 94 0
100 103 106 107 108 109 110 112 0
113 114 115 117 120 124 126 0
130 133 134 136 137 139 141 0
146 147 148 154 155 158 159 0
161 162 164 168 169 171 173 175 176 0
178 179 182 184 185 188 190 192 0
195 196 199 200 201 204 205 208 0
209 210 211 213 216 219 221 222 223 224 0
225 227 229 232 233 234 237 239 0
241 243 245 246 247 249 250 252 256 0
264 265 268 269 272 0
1 17 33 65 113 161 209 225 241 0
18 34 82 114 130 146 162 178 210 0
3 19 35 51 67 115 147 179 195 211 227 243 0
4 52 68 84 100 148 164 196 0
37 69 85 117 133 213 229 245 0
6 22 38 54 70 86 134 182 246 0
7 71 103 199 247 0
40 56 88 120 136 168 184 200 216 232 264 0
9 25 57 73 137 169 185 201 233 249 265 0
10 42 58 74 106 154 234 250 0
27 107 139 155 171 219 0
92 108 124 188 204 252 268 0
13 29 93 109 141 173 205 221 237 269 0
14 30 46 94 110 126 158 190 222 0
15 47 159 175 223 239 0
16 112 176 192 208 224 256 272 0
-1 -17 0
-1 -33 0
-1 -65 0
-1 -113 0
-1 -161 0
-1 -209 0
-1 -225 0
-1 -241 0
-17 -33 0
-17 -65 0
-17 -113 0
-17 -161 0
-17 -209 0
-17 -225 0
-17 -241 0
-33 -65 0
-33 -113 0
-33 -161 0
-33 -209 0
-33 -225 0
-33 -241 0
-65 -113 0
-65 -161 0
-65 -209 0
-65 -225 0
-65 -241 0
-113 -161 0
-113 -209 0
-113 -225 0
-113 -241 0
-161 -209 0
-161 -225 0
-161 -241 0
-209 -225 0
-209 -241 0
-225 -241 0
-18 -34 0
-18 -82 0
-18 -114 0
-18 -130 0
-18 -146 0
-18 -162 0
-18 -178 0
-18 -210 0
-34 -82 0
-34 -114 0
-34 -130 0
-34 -146 0
-34 -162 0
-34 -178 0
-34 -210 0
-82 -114 0
-82 -130 0
-82 -146 0
-82 -162 0
-82 -178 0
-82 -210 0
-114 -130 0
-114 -146 0
-114 -162 0
-114 -178 0
-114 -210 0
-130 -146 0
-130 -162 0
-130 -178 0
-130 -210 0
-146 -162 0
-146 -178 0
-146 -210 0
-162 -178 0
-162 -210 0
-178 -210 0
-3 -19 0
-3 -35 0
-3 -273 0
-19 -35 0
-19 -273 0
-35 -273 0
273 -51 0
273 -67 0
273 -274 0
-51 -67 0
-51 -274 0
-67 -274 0
274 -115 0
274 -147 0
274 -275 0
-115 -147 0
-115 -275 0
-147 -275 0
275 -179 0
275 -195 0
275 -276 0
-179 -195 0
-179 -276 0
-195 -276 0
276 -211 0
276 -227 0
276 -243 0
-211 -227 0
-211 -243 0
-227 -243 0
-4 277 0
-52 278 0
-52 -277 0
-277 278 0
-68 279 0
-68 -278 0
-278 279 0
-84 280 0
-84 -279 0
-279 280 0
-100 281 0
-100 -280 0
-280 281 0
-148 282 0
-148 -281 0
-281 282 0
-164 283 0
-164 -282 0
-282 283 0
-196 -283 0
-37 284 0
-69 285 0
-69 -284 0
-284 285 0
-85 286 0
-85 -285 0
-285 286 0
-117 287 0
-117 -286 0
-286 287 0
-133 288 0
-133 -287 0
-287 288 0
-213 289 0
-213 -288 0
-288 289 0
-229 290 0
-229 -289 0
-289 290 0
-245 -290 0
-6 -22 0
-6 -38 0
-6 -54 0
-6 -70 0
-6 -86 0
-6 -134 0
-6 -182 0
-6 -246 0
-22 -38 0
-22 -54 0
-22 -70 0
-22 -86 0
-22 -134 0
-22 -182 0
-22 -246 0
-38 -54 0
-38 -70 0
-38 -86 0
-38 -134 0
-38 -182 0
-38 -246 0
-54 -70 0
-54 -86 0
-54 -134 0
-54 -182 0
-54 -246 0
-70 -86 0
-70 -134 0
-70 -182 0
-70 -246 0
-86 -134 0
-86 -182 0
-86 -246 0
-134 -182 0
-134 -246 0
-182 -246 0
-7 291 0
-71 292 0
-71 -291 0
-291 292 0
-103 293 0
-103 -292 0
-292 293 0
-199 294 0
-199 -293 0
-293 294 0
-247 -294 0
-40 295 0
-56 296 0
-56 -295 0
-295 296 0
-88 297 0
-88 -296 0
-296 297 0
-120 298 0
-120 -297 0
-297 298 0
-136 299 0
-136 -298 0
-298 299 0
-168 300 0
-168 -299 0
-299 300 0
-184 301 0
-184 -300 0
-300 301 0
-200 302 0
-200 -301 0
-301 302 0
-216 303 0
-216 -302 0
-302 303 0
-232 304 0
-232 -303 0
-303 304 0
-264 -304 0
-9 -25 0
-9 -57 0
-9 -305 0
-25 -57 0
-25 -305 0
-57 -305 0
305 -73 0
305 -137 0
305 -306 0
-73 -137 0
-73 -306 0
-137 -306 0
306 -169 0
306 -185 0
306 -307 0
-169 -185 0
-169 -307 0
-185 -307 0
307 -201 0
307 -233 0
307 -308 0
-201 -233 0
-201 -308 0
-233 -308 0
308 -249 0
308 -265 0
-249 -265 0
-10 309 0
-42 310 0
-42 -309 0
-309 310 0
-58 311 0
-58 -310 0
-310 311 0
-74 312 0
-74 -311 0
-311 312 0
-106 313 0
-106 -312 0
-312 313 0
-154 314 0
-154 -313 0
-313 314 0
-234 315 0
-234 -314 0
-314 315 0
-250 -315 0
-27 316 0
-107 317 0
-107 -316 0
-316 317 0
-139 318 0
-139 -317 0
-317 318 0
-155 319 0
-155 -318 0
-318 319 0
-171 320 0
-171 -319 0
-319 320 0
-219 -320 0
-92 -108 0
-92 -124 0
-92 -321 0
-108 -124 0
-108 -321 0
-124 -321 0
321 -188 0
321 -204 0
321 -322 0
-188 -204 0
-188 -322 0
-204 -322 0
322 -252 0
322 -268 0
-252 -268 0
-13 -29 0
-13 -93 0
-13 -323 0
-29 -93 0
-29 -323 0
-93 -323 0
323 -109 0
323 -141 0
323 -324 0
-109 -141 0
-109 -324 0
-141 -324 0
324 -173 0
324 -205 0
324 -325 0
-173 -205 0
-173 -325 0
-205 -325 0
325 -221 0
325 -237 0
325 -269 0
-221 -237 0
-221 -269 0
-237 -269 0
-14 -30 0
-14 -46 0
-14 -94 0
-14 -110 0
-14 -126 0
-14 -158 0
-14 -190 0
-14 -222 0
-30 -46 0
-30 -94 0
-30 -110 0
-30 -126 0
-30 -158 0
-30 -190 0
-30 -222 0
-46 -94 0
-46 -110 0
-46 -126 0
-46 -158 0
-46 -190 0
-46 -222 0
-94 -110 0
-94 -126 0
-94 -158 0
-94 -190 0
-94 -222 0
-110 -126 0
-110 -158 0
-110 -190 0
-110 -222 0
-126 -158 0
-126 -190 0
-126 -222 0
-158 -190 0
-158 -222 0
-190 -222 0
-15 -47 0
-15 -159 0
-15 -175 0
-15 -223 0
-15 -239 0
-47 -159 0
-47 -175 0
-47 -223 0
-47 -239 0
-159 -175 0
-159 -223 0
-159 -239 0
-175 -223 0
-175 -239 0
-223 -239 0
-16 326 0
-112 327 0
-112 -326 0
-326 327 0
-176 328 0
-176 -327 0
-327 328 0
-192 329 0
-192 -328 0
-328 329 0
-208 330 0
-208 -329 0
-329 330 0
-224 331 0
-224 -330 0
-330 331 0
-256 332 0
-256 -331 0
-331 332 0
-272 -332 0
-1 -3 0
-1 -4 0
-1 -333 0
-3 -4 0
-3 -333 0
-4 -333 0
333 -6 0
333 -7 0
333 -334 0
-6 -7 0
-6 -334 0
-7 -334 0
334 -9 0
334 -10 0
334 -335 0
-9 -10 0
-9 -335 0
-10 -335 0
335 -13 0
335 -14 0
335 -336 0
-13 -14 0
-13 -336 0
-14 -336 0
336 -15 0
336 -16 0
-15 -16 0
-17 337 0
-18 338 0
-18 -337 0
-337 338 0
-19 339 0
-19 -338 0
-338 339 0
-22 340 0
-22 -339 0
-339 340 0
-25 341 0
-25 -340 0
-340 341 0
-27 342 0
-27 -341 0
-341 342 0
-29 343 0
-29 -342 0
-342 343 0
-30 -343 0
-33 -34 0
-33 -35 0
-33 -37 0
-33 -38 0
-33 -40 0
-33 -42 0
-33 -46 0
-33 -47 0
-34 -35 0
-34 -37 0
-34 -38 0
-34 -40 0
-34 -42 0
-34 -46 0
-34 -47 0
-35 -37 0
-35 -38 0
-35 -40 0
-35 -42 0
-35 -46 0
-35 -47 0
-37 -38 0
-37 -40 0
-37 -42 0
-37 -46 0
-37 -47 0
-38 -40 0
-38 -42 0
-38 -46 0
-38 -47 0
-40 -42 0
-40 -46 0
-40 -47 0
-42 -46 0
-42 -47 0
-46 -47 0
-51 -52 0
-51 -54 0
-51 -56 0
-51 -57 0
-51 -58 0
-52 -54 0
-52 -56 0
-52 -57 0
-52 -58 0
-54 -56 0
-54 -57 0
-54 -58 0
-56 -57 0
-56 -58 0
-57 -58 0
-65 -67 0
-65 -68 0
-65 -69 0
-65 -70 0
-65 -71 0
-65 -73 0
-65 -74 0
-67 -68 0
-67 -69 0
-67 -70 0
-67 -71 0
-67 -73 0
-67 -74 0
-68 -69 0
-68 -70 0
-68 -71 0
-68 -73 0
-68 -74 0
-69 -70 0
-69 -71 0
-69 -73 0
-69 -74 0
-70 -71 0
-70 -73 0
-70 -74 0
-71 -73 0
-71 -74 0
-73 -74 0
-82 344 0
-84 345 0
-84 -344 0
-344 345 0
-85 346 0
-85 -345 0
-345 346 0
-86 347 0
-86 -346 0
-346 347 0
-88 348 0
-88 -347 0
-347 348 0
-92 349 0
-92 -348 0
-348 349 0
-93 350 0
-93 -349 0
-349 350 0
-94 -350 0
-100 351 0
-103 352 0
-103 -351 0
-351 352 0
-106 353 0
-106 -352 0
-352 353 0
-107 354 0
-107 -353 0
-353 354 0
-108 355 0
-108 -354 0
-354 355 0
-109 356 0
-109 -355 0
-355 356 0
-110 357 0
-110 -356 0
-356 357 0
-112 -357 0
-113 358 0
-114 359 0
-114 -358 0
-358 359 0
-115 360 0
-115 -359 0
-359 360 0
-117 361 0
-117 -360 0
-360 361 0
-120 362 0
-120 -361 0
-361 362 0
-124 363 0
-124 -362 0
-362 363 0
-126 -363 0
-130 -133 0
-130 -134 0
-130 -136 0
-130 -137 0
-130 -139 0
-130 -141 0
-133 -134 0
-133 -136 0
-133 -137 0
-133 -139 0
-133 -141 0
-134 -136 0
-134 -137 0
-134 -139 0
-134 -141 0
-136 -137 0
-136 -139 0
-136 -141 0
-137 -139 0
-137 -141 0
-139 -141 0
-146 364 0
-147 365 0
-147 -364 0
-364 365 0
-148 366 0
-148 -365 0
-365 366 0
-154 367 0
-154 -366 0
-366 367 0
-155 368 0
-155 -367 0
-367 368 0
-158 369 0
-158 -368 0
-368 369 0
-159 -369 0
-161 -162 0
-161 -164 0
-161 -168 0
-161 -169 0
-161 -171 0
-161 -173 0
-161 -175 0
-161 -176 0
-162 -164 0
-162 -168 0
-162 -169 0
-162 -171 0
-162 -173 0
-162 -175 0
-162 -176 0
-164 -168 0
-164 -169 0
-164 -171 0
-164 -173 0
-164 -175 0
-164 -176 0
-168 -169 0
-168 -171 0
-168 -173 0
-168 -175 0
-168 -176 0
-169 -171 0
-169 -173 0
-169 -175 0
-169 -176 0
-171 -173 0
-171 -175 0
-171 -176 0
-173 -175 0
-173 -176 0
-175 -176 0
-178 370 0
-179 371 0
-179 -370 0
-370 371 0
-182 372 0
-182 -371 0
-371 372 0
-184 373 0
-184 -372 0
-372 373 0
-185 374 0
-185 -373 0
-373 374 0
-188 375 0
-188 -374 0
-374 375 0
-190 376 0
-190 -375 0
-375 376 0
-192 -376 0
-195 -196 0
-195 -199 0
-195 -200 0
-195 -201 0
-195 -204 0
-195 -205 0
-195 -208 0
-196 -199 0
-196 -200 0
-196 -201 0
-196 -204 0
-196 -205 0
-196 -208 0
-199 -200 0
-199 -201 0
-199 -204 0
-199 -205 0
-199 -208 0
-200 -201 0
-200 -204 0
-200 -205 0
-200 -208 0
-201 -204 0
-201 -205 0
-201 -208 0
-204 -205 0
-204 -208 0
-205 -208 0
-209 -210 0
-209 -211 0
-209 -213 0
-209 -216 0
-209 -219 0
-209 -221 0
-209 -222 0
-209 -223 0
-209 -224 0
-210 -211 0
-210 -213 0
-210 -216 0
-210 -219 0
-210 -221 0
-210 -222 0
-210 -223 0
-210 -224 0
-211 -213 0
-211 -216 0
-211 -219 0
-211 -221 0
-211 -222 0
-211 -223 0
-211 -224 0
-213 -216 0
-213 -219 0
-213 -221 0
-213 -222 0
-213 -223 0
-213 -224 0
-216 -219 0
-216 -221 0
-216 -222 0
-216 -223 0
-216 -224 0
-219 -221 0
-219 -222 0
-219 -223 0
-219 -224 0
-221 -222 0
-221 -223 0
-221 -224 0
-222 -223 0
-222 -224 0
-223 -224 0
-225 377 0
-227 378 0
-227 -377 0
-377 378 0
-229 379 0
-229 -378 0
-378 379 0
-232 380 0
-232 -379 0
-379 380 0
-233 381 0
-233 -380 0
-380 381 0
-234 382 0
-234 -381 0
-381 382 0
-237 383 0
-237 -382 0
-382 383 0
-239 -383 0
-241 -243 0
-241 -245 0
-241 -384 0
-243 -245 0
-243 -384 0
-245 -384 0
384 -246 0
384 -247 0
384 -385 0
-246 -247 0
-246 -385 0
-247 -385 0
385 -249 0
385 -250 0
385 -386 0
-249 -250 0
-249 -386 0
-250 -386 0
386 -252 0
386 -256 0
-252 -256 0
-264 387 0
-265 388 0
-265 -387 0
-387 388 0
-268 389 0
-268 -388 0
-388 389 0
-269 390 0
-269 -389 0
-389 390 0
-272 -390 0
